1329566229 0 0 1
1329567723 0 0 2
1329569114 1 0 2
1329569763 2 0 2
1329569878 3 0 2
1329570313 4 0 2
1329570488 5 0 2
1329573125 6 0 2
1329573773 7 0 2
1329574129 8 0 2
1329574661 9 0 2
1329575334 9 0 3
1329575513 10 0 3
1329575641 10 0 4
1329577158 10 0 5
1329657800 10 1 5
1329658594 10 2 5
1329669721 10 3 5
1329669817 10 4 5
1329670221 10 5 5
1329670321 10 6 5
